
<<< setup


<<< generate

Version identifier: 22.1.1.0 | 2022-11-27 | 9160aff4d
Tried aggregator 1 time.
MIQCP Presolve eliminated 887 rows and 1 columns.
MIQCP Presolve modified 1582 coefficients.
Reduced MIQCP has 8337 rows, 7482 columns, and 90855 nonzeros.
Reduced MIQCP has 300 binaries, 0 generals, 0 SOSs, and 0 indicators.
Reduced MIQCP has 1263 quadratic constraints.
Presolve time = 0,30 sec. (346,49 ticks)
Probing fixed 0 vars, tightened 5076 bounds.
Probing time = 0,17 sec. (237,59 ticks)
Clique table members: 1720.
MIP emphasis: balance optimality and feasibility.
MIP search method: dynamic search.
Parallel mode: deterministic, using up to 12 threads.
Root relaxation solution time = 0,06 sec. (101,95 ticks)

        Nodes                                         Cuts/
   Node  Left     Objective  IInf  Best Integer    Best Bound    ItCnt     Gap

      0     0     6094,4940     0                  25827,8207      386         
      0     0     6084,8911   135                     Cone: 1      613         
      0     0     6078,7561   179                     Cone: 2      824         
      0     0     6071,7986   182                     Cone: 3     1120         
      0     0     6066,4412   186                     Cone: 4     1452         
      0     0     6064,2073   176                     Cone: 5     1722         
      0     0     6061,9299   188                     Cone: 6     2072         
